602
1 0 5 575 1 592 1 591 1 590 1 589 1
2 0 5 496 1 390 1 463 1 245 1 445 1
3 0 5 85 1 261 1 232 1 306 1 358 1
4 0 5 381 1 462 1 176 1 214 1 435 1
5 0 5 179 1 221 1 539 1 471 1 237 1
6 0 5 398 1 64 1 19 1 350 1 50 1
7 0 5 32 1 396 1 263 1 134 1 546 1
8 0 5 218 1 188 1 142 1 494 1 288 1
9 0 5 519 1 354 1 503 1 360 1 384 1
10 0 5 420 1 172 1 278 1 473 1 482 1
11 0 5 44 1 76 1 432 1 81 1 201 1
12 0 5 41 1 40 1 569 1 509 1 208 1
13 0 5 19 1 233 1 537 1 6 1 246 1
14 0 5 279 1 443 1 437 1 395 1 311 1
15 0 5 235 1 139 1 472 1 571 1 29 1
16 0 5 441 1 27 1 526 1 500 1 68 1
17 0 5 400 1 371 1 490 1 466 1 112 1
18 0 5 124 1 427 1 186 1 323 1 231 1
19 0 5 13 1 6 1 233 1 537 1 398 1
20 0 5 30 1 77 1 37 1 286 1 110 1
21 0 5 351 1 178 1 518 1 545 1 148 1
22 0 5 43 1 159 1 426 1 65 1 338 1
23 0 5 133 1 516 1 464 1 165 1 163 1
24 0 5 450 1 109 1 275 1 93 1 304 1
25 0 5 72 1 393 1 83 1 293 1 469 1
26 0 5 454 1 251 1 436 1 193 1 41 1
27 0 5 209 1 441 1 16 1 362 1 567 1
28 0 5 122 1 182 1 52 1 508 1 459 1
29 0 5 348 1 73 1 474 1 361 1 317 1
30 0 5 20 1 485 1 110 1 286 1 200 1
31 0 5 356 1 114 1 451 1 449 1 144 1
32 0 5 413 1 7 1 498 1 396 1 483 1
33 0 5 492 1 107 1 146 1 366 1 297 1
34 0 5 213 1 373 1 335 1 36 1 106 1
35 0 5 409 1 175 1 527 1 505 1 534 1
36 0 5 135 1 332 1 34 1 245 1 326 1
37 0 5 20 1 535 1 565 1 489 1 289 1
38 0 5 226 1 422 1 309 1 197 1 544 1
39 0 5 185 1 467 1 542 1 166 1 194 1
40 0 5 339 1 86 1 12 1 509 1 277 1
41 0 5 26 1 12 1 40 1 570 1 193 1
42 0 5 150 1 281 1 327 1 145 1 477 1
43 0 5 22 1 338 1 252 1 222 1 65 1
44 0 5 11 1 76 1 432 1 201 1 319 1
45 0 5 507 1 88 1 92 1 417 1 531 1
46 0 5 394 1 111 1 173 1 308 1 87 1
47 0 5 330 1 274 1 299 1 290 1 564 1
48 0 5 383 1 235 1 379 1 80 1 95 1
49 0 5 404 1 316 1 82 1 474 1 57 1
50 0 5 6 1 64 1 275 1 24 1 223 1
51 0 5 153 1 534 1 75 1 151 1 295 1
52 0 5 243 1 28 1 127 1 122 1 461 1
53 0 5 440 1 285 1 380 1 428 1 542 1
54 0 5 45 1 10 1 531 1 507 1 473 1
55 0 5 442 1 155 1 137 1 250 1 377 1
56 0 5 452 1 97 1 455 1 439 1 402 1
57 0 5 168 1 557 1 171 1 255 1 9 1
58 0 5 372 1 42 1 327 1 329 1 264 1
59 0 5 17 1 167 1 90 1 216 1 20 1
60 0 5 377 1 131 1 250 1 155 1 376 1
61 0 5 324 1 99 1 103 1 408 1 169 1
62 0 5 89 1 518 1 69 1 444 1 287 1
63 0 5 230 1 352 1 186 1 173 1 427 1
64 0 5 6 1 50 1 398 1 19 1 275 1
65 0 5 43 1 22 1 426 1 303 1 181 1
66 0 5 33 1 431 1 257 1 161 1 374 1
67 0 5 238 1 211 1 80 1 108 1 95 1
68 0 5 315 1 526 1 121 1 553 1 116 1
69 0 5 551 1 89 1 62 1 14 1 518 1
70 0 5 493 1 158 1 34 1 521 1 36 1
71 0 5 91 1 294 1 341 1 455 1 56 1
72 0 5 25 1 393 1 138 1 469 1 83 1
73 0 5 348 1 29 1 419 1 15 1 425 1
74 0 5 228 1 247 1 530 1 140 1 331 1
75 0 5 295 1 339 1 40 1 51 1 277 1
76 0 5 11 1 44 1 432 1 201 1 319 1
77 0 5 20 1 30 1 286 1 110 1 489 1
78 0 5 337 1 291 1 532 1 346 1 415 1
79 0 5 37 1 490 1 17 1 457 1 371 1
80 0 5 95 1 379 1 510 1 67 1 211 1
81 0 5 480 1 558 1 11 1 44 1 432 1
82 0 5 243 1 49 1 127 1 254 1 52 1
83 0 5 293 1 25 1 157 1 72 1 138 1
84 0 5 355 1 248 1 527 1 340 1 35 1
85 0 5 3 1 261 1 306 1 533 1 358 1
86 0 5 40 1 509 1 569 1 12 1 318 1
87 0 5 308 1 278 1 46 1 111 1 394 1
88 0 5 45 1 220 1 92 1 196 1 531 1
89 0 5 62 1 444 1 69 1 246 1 96 1
90 0 5 216 1 59 1 375 1 167 1 434 1
91 0 5 71 1 294 1 341 1 452 1 56 1
92 0 5 45 1 283 1 88 1 242 1 258 1
93 0 5 24 1 304 1 450 1 275 1 109 1
94 0 5 118 1 305 1 292 1 225 1 272 1
95 0 5 80 1 379 1 510 1 211 1 67 1
96 0 5 566 1 253 1 444 1 14 1 246 1
97 0 5 402 1 452 1 115 1 56 1 439 1
98 0 5 382 1 517 1 337 1 569 1 415 1
99 0 5 324 1 61 1 103 1 408 1 138 1
100 0 5 34 1 32 1 123 1 413 1 411 1
101 0 5 195 1 378 1 140 1 515 1 302 1
102 0 5 573 1 343 1 242 1 480 1 336 1
103 0 5 324 1 61 1 99 1 408 1 169 1
104 0 5 555 1 474 1 361 1 127 1 456 1
105 0 5 157 1 468 1 345 1 260 1 298 1
106 0 5 34 1 32 1 213 1 7 1 373 1
107 0 5 33 1 546 1 4 1 492 1 396 1
108 0 5 383 1 422 1 38 1 309 1 67 1
109 0 5 24 1 450 1 460 1 304 1 93 1
110 0 5 30 1 20 1 485 1 286 1 77 1
111 0 5 394 1 152 1 46 1 173 1 87 1
112 0 5 486 1 17 1 466 1 44 1 400 1
113 0 5 389 1 412 1 387 1 229 1 141 1
114 0 5 31 1 356 1 449 1 451 1 445 1
115 0 5 402 1 185 1 97 1 467 1 452 1
116 0 5 231 1 18 1 124 1 186 1 68 1
117 0 5 209 1 226 1 544 1 179 1 38 1
118 0 5 6 1 223 1 94 1 272 1 328 1
119 0 5 262 1 431 1 29 1 215 1 361 1
120 0 5 187 1 251 1 454 1 438 1 208 1
121 0 5 418 1 553 1 526 1 315 1 572 1
122 0 5 28 1 243 1 52 1 461 1 82 1
123 0 5 300 1 411 1 200 1 100 1 478 1
124 0 5 323 1 18 1 231 1 116 1 186 1
125 0 5 495 1 33 1 327 1 42 1 257 1
126 0 5 9 1 536 1 316 1 360 1 354 1
127 0 5 316 1 404 1 168 1 536 1 104 1
128 0 5 552 1 20 1 411 1 423 1 478 1
129 0 5 280 1 308 1 217 1 349 1 87 1
130 0 5 554 1 321 1 511 1 217 1 46 1
131 0 5 548 1 559 1 353 1 60 1 276 1
132 0 5 556 1 524 1 476 1 30 1 300 1
133 0 5 23 1 165 1 426 1 516 1 65 1
134 0 5 7 1 263 1 546 1 234 1 492 1
135 0 5 36 1 332 1 326 1 162 1 329 1
136 0 5 336 1 506 1 453 1 343 1 11 1
137 0 5 250 1 55 1 442 1 376 1 155 1
138 0 5 61 1 324 1 99 1 25 1 103 1
139 0 5 456 1 203 1 15 1 555 1 571 1
140 0 5 219 1 331 1 247 1 515 1 74 1
141 0 5 307 1 387 1 205 1 412 1 113 1
142 0 5 8 1 188 1 155 1 218 1 288 1
143 0 5 567 1 362 1 179 1 539 1 5 1
144 0 5 447 1 31 1 451 1 240 1 356 1
145 0 5 150 1 42 1 281 1 425 1 29 1
146 0 5 33 1 257 1 125 1 495 1 327 1
147 0 5 500 1 526 1 553 1 418 1 180 1
148 0 5 545 1 342 1 385 1 551 1 21 1
149 0 5 189 1 433 1 191 1 353 1 391 1
150 0 5 42 1 145 1 425 1 477 1 317 1
151 0 5 153 1 318 1 51 1 35 1 534 1
152 0 5 313 1 173 1 111 1 230 1 394 1
153 0 5 51 1 534 1 151 1 318 1 35 1
154 0 5 331 1 219 1 530 1 140 1 247 1
155 0 5 442 1 55 1 137 1 377 1 250 1
156 0 5 240 1 365 1 144 1 229 1 31 1
157 0 5 105 1 271 1 83 1 267 1 293 1
158 0 5 70 1 134 1 493 1 34 1 7 1
159 0 5 22 1 43 1 65 1 23 1 426 1
160 0 5 381 1 424 1 462 1 214 1 435 1
161 0 5 470 1 370 1 259 1 29 1 171 1
162 0 5 326 1 329 1 369 1 36 1 271 1
163 0 5 23 1 529 1 399 1 464 1 541 1
164 0 5 537 1 19 1 233 1 333 1 13 1
165 0 5 464 1 23 1 301 1 426 1 133 1
166 0 5 39 1 194 1 467 1 465 1 542 1
167 0 5 59 1 90 1 20 1 30 1 216 1
168 0 5 127 1 555 1 370 1 470 1 57 1
169 0 5 408 1 61 1 324 1 103 1 446 1
170 0 5 549 1 273 1 270 1 359 1 306 1
171 0 5 470 1 370 1 161 1 57 1 416 1
172 0 5 10 1 278 1 482 1 420 1 87 1
173 0 5 352 1 313 1 152 1 230 1 63 1
174 0 5 532 1 364 1 244 1 346 1 291 1
175 0 5 35 1 505 1 527 1 403 1 409 1
176 0 5 4 1 483 1 32 1 498 1 413 1
177 0 5 28 1 290 1 363 1 560 1 522 1
178 0 5 351 1 21 1 518 1 287 1 312 1
179 0 5 544 1 5 1 143 1 539 1 567 1
180 0 5 310 1 418 1 147 1 121 1 500 1
181 0 5 426 1 65 1 314 1 165 1 464 1
182 0 5 28 1 302 1 359 1 410 1 508 1
183 0 5 538 1 403 1 376 1 248 1 505 1
184 0 5 497 1 557 1 268 1 224 1 360 1
185 0 5 467 1 39 1 380 1 115 1 542 1
186 0 5 18 1 63 1 230 1 124 1 116 1
187 0 5 277 1 438 1 436 1 454 1 251 1
188 0 5 8 1 142 1 288 1 218 1 481 1
189 0 5 149 1 391 1 494 1 191 1 433 1
190 0 5 491 1 397 1 385 1 342 1 388 1
191 0 5 433 1 334 1 502 1 8 1 494 1
192 0 5 305 1 225 1 399 1 392 1 275 1
193 0 5 26 1 436 1 243 1 251 1 41 1
194 0 5 465 1 166 1 258 1 39 1 542 1
195 0 5 244 1 515 1 101 1 364 1 140 1
196 0 5 531 1 45 1 220 1 434 1 507 1
197 0 5 309 1 38 1 544 1 237 1 179 1
198 0 5 241 1 265 1 525 1 513 1 547 1
199 0 5 423 1 37 1 411 1 552 1 128 1
200 0 5 30 1 20 1 478 1 128 1 110 1
201 0 5 319 1 44 1 11 1 432 1 76 1
202 0 5 469 1 540 1 475 1 25 1 138 1
203 0 5 139 1 29 1 348 1 419 1 73 1
204 0 5 23 1 265 1 516 1 513 1 558 1
205 0 5 347 1 401 1 307 1 298 1 345 1
206 0 5 43 1 22 1 23 1 159 1 407 1
207 0 5 37 1 32 1 565 1 535 1 483 1
208 0 5 26 1 436 1 12 1 193 1 41 1
209 0 5 117 1 441 1 27 1 544 1 226 1
210 0 5 430 1 48 1 368 1 383 1 379 1
211 0 5 540 1 239 1 238 1 67 1 510 1
212 0 5 292 1 314 1 399 1 192 1 305 1
213 0 5 34 1 106 1 335 1 373 1 100 1
214 0 5 4 1 381 1 396 1 160 1 435 1
215 0 5 431 1 119 1 361 1 66 1 42 1
216 0 5 90 1 375 1 434 1 488 1 59 1
217 0 5 280 1 129 1 46 1 308 1 487 1
218 0 5 8 1 494 1 188 1 142 1 502 1
219 0 5 331 1 140 1 154 1 247 1 530 1
220 0 5 88 1 45 1 196 1 531 1 283 1
221 0 5 5 1 471 1 401 1 539 1 550 1
222 0 5 43 1 4 1 282 1 381 1 562 1
223 0 5 118 1 398 1 350 1 50 1 344 1
224 0 5 360 1 384 1 9 1 519 1 314 1
225 0 5 192 1 94 1 305 1 118 1 272 1
226 0 5 117 1 38 1 422 1 544 1 209 1
227 0 5 21 1 351 1 545 1 97 1 402 1
228 0 5 74 1 530 1 247 1 3 1 331 1
229 0 5 113 1 389 1 365 1 543 1 412 1
230 0 5 313 1 427 1 63 1 18 1 173 1
231 0 5 116 1 367 1 323 1 124 1 18 1
232 0 5 3 1 306 1 299 1 358 1 261 1
233 0 5 19 1 13 1 164 1 537 1 6 1
234 0 5 33 1 546 1 7 1 134 1 366 1
235 0 5 571 1 15 1 456 1 472 1 379 1
236 0 5 514 1 237 1 475 1 197 1 471 1
237 0 5 471 1 197 1 236 1 5 1 514 1
238 0 5 67 1 211 1 80 1 95 1 239 1
239 0 5 211 1 510 1 540 1 95 1 238 1
240 0 5 156 1 144 1 365 1 31 1 229 1
241 0 5 198 1 265 1 547 1 525 1 23 1
242 0 5 455 1 92 1 102 1 573 1 71 1
243 0 5 404 1 82 1 122 1 52 1 316 1
244 0 5 195 1 515 1 346 1 364 1 291 1
245 0 5 496 1 36 1 256 1 2 1 390 1
246 0 5 444 1 96 1 89 1 19 1 566 1
247 0 5 74 1 228 1 530 1 331 1 140 1
248 0 5 403 1 84 1 527 1 505 1 340 1
249 0 5 284 1 332 1 36 1 357 1 271 1
250 0 5 376 1 377 1 137 1 60 1 55 1
251 0 5 454 1 26 1 322 1 193 1 436 1
252 0 5 43 1 338 1 22 1 432 1 206 1
253 0 5 96 1 14 1 566 1 460 1 443 1
254 0 5 509 1 429 1 82 1 499 1 532 1
255 0 5 568 1 557 1 168 1 171 1 57 1
256 0 5 245 1 496 1 390 1 36 1 2 1
257 0 5 470 1 374 1 66 1 370 1 146 1
258 0 5 465 1 194 1 166 1 341 1 39 1
259 0 5 161 1 370 1 470 1 29 1 431 1
260 0 5 468 1 357 1 345 1 479 1 205 1
261 0 5 3 1 533 1 288 1 85 1 481 1
262 0 5 431 1 119 1 29 1 215 1 361 1
263 0 5 7 1 32 1 134 1 546 1 492 1
264 0 5 326 1 521 1 372 1 58 1 495 1
265 0 5 525 1 513 1 198 1 204 1 241 1
266 0 5 414 1 443 1 23 1 529 1 311 1
267 0 5 446 1 477 1 271 1 157 1 42 1
268 0 5 424 1 497 1 184 1 435 1 360 1
269 0 5 506 1 486 1 112 1 453 1 136 1
270 0 5 273 1 170 1 549 1 306 1 359 1
271 0 5 369 1 36 1 162 1 332 1 267 1
272 0 5 398 1 118 1 350 1 292 1 94 1
273 0 5 270 1 170 1 549 1 306 1 359 1
274 0 5 47 1 290 1 330 1 564 1 299 1
275 0 5 24 1 6 1 450 1 50 1 93 1
276 0 5 405 1 559 1 312 1 520 1 287 1
277 0 5 187 1 438 1 339 1 40 1 295 1
278 0 5 172 1 10 1 87 1 349 1 420 1
279 0 5 14 1 437 1 443 1 395 1 385 1
280 0 5 129 1 217 1 308 1 487 1 563 1
281 0 5 42 1 145 1 317 1 29 1 150 1
282 0 5 4 1 43 1 562 1 222 1 319 1
283 0 5 92 1 453 1 88 1 220 1 242 1
284 0 5 249 1 36 1 332 1 357 1 260 1
285 0 5 53 1 482 1 440 1 380 1 473 1
286 0 5 20 1 30 1 110 1 77 1 485 1
287 0 5 312 1 405 1 178 1 21 1 276 1
288 0 5 8 1 3 1 481 1 188 1 261 1
289 0 5 37 1 20 1 489 1 535 1 565 1
290 0 5 459 1 274 1 177 1 47 1 522 1
291 0 5 346 1 484 1 78 1 244 1 515 1
292 0 5 503 1 328 1 212 1 305 1 272 1
293 0 5 83 1 25 1 169 1 446 1 138 1
294 0 5 71 1 91 1 341 1 115 1 452 1
295 0 5 75 1 339 1 40 1 51 1 277 1
296 0 5 448 1 186 1 352 1 572 1 63 1
297 0 5 33 1 568 1 557 1 366 1 492 1
298 0 5 401 1 347 1 345 1 205 1 105 1
299 0 5 564 1 3 1 47 1 274 1 232 1
300 0 5 476 1 123 1 335 1 34 1 100 1
301 0 5 464 1 165 1 384 1 541 1 360 1
302 0 5 378 1 182 1 508 1 101 1 359 1
303 0 5 426 1 65 1 497 1 424 1 568 1
304 0 5 24 1 93 1 450 1 109 1 541 1
305 0 5 292 1 192 1 94 1 225 1 118 1
306 0 5 3 1 358 1 232 1 270 1 85 1
307 0 5 141 1 205 1 387 1 113 1 412 1
308 0 5 87 1 129 1 46 1 280 1 394 1
309 0 5 197 1 38 1 544 1 108 1 422 1
310 0 5 320 1 180 1 147 1 500 1 418 1
311 0 5 395 1 437 1 14 1 443 1 241 1
312 0 5 287 1 405 1 276 1 178 1 559 1
313 0 5 230 1 152 1 427 1 173 1 63 1
314 0 5 212 1 384 1 181 1 360 1 519 1
315 0 5 68 1 121 1 526 1 553 1 572 1
316 0 5 127 1 49 1 243 1 354 1 126 1
317 0 5 29 1 42 1 425 1 281 1 361 1
318 0 5 517 1 151 1 86 1 40 1 51 1
319 0 5 201 1 44 1 11 1 432 1 562 1
320 0 5 310 1 543 1 389 1 412 1 180 1
321 0 5 365 1 31 1 130 1 229 1 543 1
322 0 5 26 1 436 1 251 1 243 1 454 1
323 0 5 367 1 124 1 231 1 18 1 482 1
324 0 5 61 1 99 1 103 1 408 1 169 1
325 0 5 44 1 11 1 319 1 490 1 201 1
326 0 5 329 1 162 1 36 1 264 1 372 1
327 0 5 42 1 495 1 58 1 125 1 372 1
328 0 5 292 1 118 1 350 1 344 1 272 1
329 0 5 326 1 162 1 372 1 58 1 36 1
330 0 5 47 1 274 1 564 1 299 1 504 1
331 0 5 219 1 154 1 140 1 247 1 530 1
332 0 5 36 1 249 1 271 1 284 1 135 1
333 0 5 458 1 386 1 406 1 164 1 520 1
334 0 5 433 1 502 1 191 1 8 1 60 1
335 0 5 34 1 300 1 213 1 476 1 100 1
336 0 5 136 1 453 1 506 1 343 1 269 1
337 0 5 415 1 340 1 78 1 98 1 355 1
338 0 5 43 1 22 1 252 1 159 1 65 1
339 0 5 40 1 295 1 277 1 75 1 438 1
340 0 5 355 1 84 1 484 1 248 1 415 1
341 0 5 294 1 71 1 258 1 91 1 166 1
342 0 5 385 1 148 1 545 1 551 1 190 1
343 0 5 573 1 102 1 336 1 136 1 480 1
344 0 5 328 1 223 1 28 1 272 1 292 1
345 0 5 347 1 298 1 468 1 205 1 260 1
346 0 5 291 1 244 1 78 1 515 1 532 1
347 0 5 205 1 345 1 298 1 401 1 307 1
348 0 5 73 1 29 1 203 1 15 1 425 1
349 0 5 10 1 129 1 420 1 278 1 87 1
350 0 5 6 1 223 1 398 1 272 1 459 1
351 0 5 178 1 21 1 518 1 559 1 545 1
352 0 5 173 1 63 1 296 1 230 1 186 1
353 0 5 548 1 131 1 520 1 149 1 433 1
354 0 5 9 1 536 1 316 1 503 1 519 1
355 0 5 84 1 340 1 527 1 35 1 248 1
356 0 5 31 1 451 1 114 1 144 1 447 1
357 0 5 260 1 479 1 468 1 284 1 345 1
358 0 5 3 1 504 1 306 1 410 1 232 1
359 0 5 170 1 182 1 549 1 508 1 273 1
360 0 5 9 1 224 1 384 1 519 1 314 1
361 0 5 104 1 29 1 317 1 215 1 119 1
362 0 5 567 1 143 1 539 1 500 1 179 1
363 0 5 461 1 177 1 560 1 28 1 522 1
364 0 5 244 1 195 1 174 1 515 1 532 1
365 0 5 229 1 156 1 240 1 321 1 389 1
366 0 5 33 1 568 1 557 1 234 1 492 1
367 0 5 323 1 231 1 380 1 124 1 116 1
368 0 5 210 1 404 1 193 1 322 1 208 1
369 0 5 271 1 162 1 36 1 329 1 267 1
370 0 5 168 1 161 1 259 1 171 1 29 1
371 0 5 17 1 490 1 400 1 44 1 466 1
372 0 5 58 1 329 1 42 1 264 1 326 1
373 0 5 34 1 70 1 106 1 158 1 36 1
374 0 5 257 1 431 1 66 1 161 1 171 1
375 0 5 434 1 216 1 488 1 90 1 196 1
376 0 5 250 1 137 1 377 1 183 1 538 1
377 0 5 60 1 250 1 376 1 155 1 55 1
378 0 5 302 1 101 1 182 1 195 1 508 1
379 0 5 95 1 80 1 510 1 235 1 48 1
380 0 5 185 1 440 1 542 1 367 1 285 1
381 0 5 4 1 462 1 424 1 435 1 222 1
382 0 5 98 1 532 1 509 1 499 1 429 1
383 0 5 48 1 108 1 422 1 80 1 95 1
384 0 5 9 1 399 1 360 1 224 1 301 1
385 0 5 342 1 148 1 545 1 190 1 551 1
386 0 5 458 1 333 1 520 1 149 1 406 1
387 0 5 412 1 141 1 113 1 307 1 389 1
388 0 5 439 1 455 1 56 1 452 1 97 1
389 0 5 113 1 543 1 412 1 229 1 320 1
390 0 5 496 1 2 1 445 1 463 1 245 1
391 0 5 189 1 8 1 149 1 494 1 3 1
392 0 5 192 1 24 1 305 1 225 1 93 1
393 0 5 25 1 72 1 469 1 202 1 514 1
394 0 5 111 1 46 1 152 1 173 1 87 1
395 0 5 311 1 437 1 14 1 443 1 279 1
396 0 5 32 1 7 1 4 1 413 1 498 1
397 0 5 491 1 190 1 14 1 395 1 311 1
398 0 5 6 1 272 1 223 1 64 1 350 1
399 0 5 384 1 503 1 192 1 163 1 541 1
400 0 5 17 1 371 1 490 1 466 1 44 1
401 0 5 298 1 205 1 347 1 221 1 345 1
402 0 5 97 1 115 1 452 1 56 1 439 1
403 0 5 505 1 248 1 175 1 538 1 183 1
404 0 5 456 1 555 1 243 1 49 1 127 1
405 0 5 276 1 312 1 287 1 559 1 178 1
406 0 5 287 1 333 1 386 1 537 1 19 1
407 0 5 558 1 43 1 206 1 432 1 22 1
408 0 5 169 1 61 1 103 1 324 1 99 1
409 0 5 534 1 35 1 175 1 527 1 505 1
410 0 5 358 1 508 1 459 1 182 1 504 1
411 0 5 128 1 20 1 199 1 552 1 478 1
412 0 5 387 1 113 1 389 1 320 1 141 1
413 0 5 32 1 396 1 498 1 7 1 483 1
414 0 5 266 1 443 1 23 1 311 1 529 1
415 0 5 337 1 340 1 355 1 84 1 484 1
416 0 5 33 1 171 1 257 1 161 1 495 1
417 0 5 428 1 45 1 507 1 473 1 54 1
418 0 5 121 1 553 1 526 1 147 1 180 1
419 0 5 73 1 408 1 203 1 169 1 15 1
420 0 5 10 1 172 1 473 1 349 1 278 1
421 0 5 451 1 447 1 31 1 356 1 144 1
422 0 5 108 1 383 1 38 1 226 1 309 1
423 0 5 37 1 199 1 20 1 552 1 128 1
424 0 5 43 1 435 1 381 1 222 1 160 1
425 0 5 29 1 42 1 317 1 150 1 145 1
426 0 5 43 1 22 1 65 1 23 1 303 1
427 0 5 230 1 18 1 313 1 124 1 63 1
428 0 5 417 1 45 1 53 1 465 1 285 1
429 0 5 243 1 28 1 254 1 382 1 569 1
430 0 5 501 1 48 1 210 1 379 1 235 1
431 0 5 262 1 119 1 29 1 215 1 66 1
432 0 5 11 1 44 1 201 1 319 1 76 1
433 0 5 334 1 191 1 502 1 149 1 189 1
434 0 5 488 1 375 1 196 1 531 1 216 1
435 0 5 4 1 424 1 381 1 222 1 160 1
436 0 5 26 1 322 1 193 1 438 1 208 1
437 0 5 14 1 395 1 311 1 279 1 443 1
438 0 5 277 1 187 1 436 1 454 1 251 1
439 0 5 388 1 56 1 452 1 97 1 402 1
440 0 5 380 1 53 1 285 1 542 1 428 1
441 0 5 209 1 16 1 27 1 362 1 567 1
442 0 5 55 1 155 1 137 1 250 1 377 1
443 0 5 14 1 311 1 437 1 395 1 414 1
444 0 5 246 1 89 1 96 1 62 1 566 1
445 0 5 390 1 31 1 496 1 356 1 463 1
446 0 5 267 1 477 1 169 1 293 1 42 1
447 0 5 144 1 451 1 31 1 240 1 479 1
448 0 5 572 1 296 1 180 1 121 1 186 1
449 0 5 31 1 114 1 356 1 511 1 445 1
450 0 5 24 1 109 1 275 1 93 1 304 1
451 0 5 31 1 356 1 144 1 447 1 421 1
452 0 5 56 1 97 1 402 1 115 1 439 1
453 0 5 336 1 506 1 283 1 136 1 269 1
454 0 5 251 1 26 1 438 1 322 1 436 1
455 0 5 242 1 388 1 56 1 439 1 452 1
456 0 5 404 1 139 1 235 1 104 1 73 1
457 0 5 37 1 79 1 483 1 565 1 535 1
458 0 5 386 1 333 1 520 1 149 1 189 1
459 0 5 560 1 28 1 504 1 290 1 410 1
460 0 5 24 1 109 1 6 1 450 1 253 1
461 0 5 363 1 28 1 292 1 122 1 536 1
462 0 5 4 1 381 1 222 1 43 1 160 1
463 0 5 2 1 390 1 496 1 476 1 445 1
464 0 5 23 1 165 1 301 1 426 1 399 1
465 0 5 194 1 258 1 166 1 39 1 542 1
466 0 5 17 1 400 1 112 1 44 1 486 1
467 0 5 185 1 39 1 166 1 542 1 115 1
468 0 5 260 1 345 1 105 1 357 1 347 1
469 0 5 202 1 25 1 475 1 393 1 514 1
470 0 5 168 1 171 1 161 1 259 1 370 1
471 0 5 550 1 221 1 237 1 5 1 236 1
472 0 5 235 1 15 1 510 1 139 1 95 1
473 0 5 10 1 285 1 53 1 482 1 428 1
474 0 5 104 1 29 1 168 1 361 1 259 1
475 0 5 514 1 469 1 236 1 202 1 540 1
476 0 5 300 1 132 1 463 1 556 1 335 1
477 0 5 267 1 446 1 42 1 145 1 150 1
478 0 5 20 1 200 1 128 1 411 1 552 1
479 0 5 357 1 260 1 447 1 240 1 156 1
480 0 5 81 1 11 1 558 1 44 1 525 1
481 0 5 3 1 288 1 8 1 188 1 261 1
482 0 5 285 1 10 1 323 1 172 1 473 1
483 0 5 32 1 4 1 176 1 498 1 207 1
484 0 5 340 1 415 1 291 1 355 1 248 1
485 0 5 30 1 110 1 20 1 286 1 77 1
486 0 5 112 1 17 1 44 1 11 1 466 1
487 0 5 563 1 30 1 524 1 280 1 556 1
488 0 5 434 1 375 1 196 1 216 1 531 1
489 0 5 37 1 20 1 289 1 535 1 77 1
490 0 5 17 1 371 1 79 1 400 1 44 1
491 0 5 190 1 397 1 385 1 14 1 388 1
492 0 5 33 1 546 1 134 1 263 1 107 1
493 0 5 521 1 70 1 264 1 158 1 495 1
494 0 5 8 1 191 1 218 1 189 1 391 1
495 0 5 125 1 327 1 42 1 264 1 521 1
496 0 5 390 1 2 1 245 1 256 1 463 1
497 0 5 384 1 184 1 303 1 268 1 360 1
498 0 5 32 1 4 1 483 1 176 1 413 1
499 0 5 243 1 569 1 26 1 382 1 254 1
500 0 5 147 1 16 1 362 1 526 1 180 1
501 0 5 430 1 368 1 523 1 210 1 120 1
502 0 5 334 1 433 1 191 1 60 1 8 1
503 0 5 9 1 292 1 399 1 519 1 536 1
504 0 5 459 1 358 1 410 1 560 1 290 1
505 0 5 175 1 403 1 35 1 527 1 248 1
506 0 5 269 1 453 1 136 1 336 1 486 1
507 0 5 45 1 531 1 196 1 417 1 88 1
508 0 5 28 1 410 1 359 1 182 1 302 1
509 0 5 86 1 570 1 254 1 40 1 12 1
510 0 5 379 1 95 1 239 1 80 1 211 1
511 0 5 449 1 31 1 556 1 132 1 217 1
512 0 5 568 1 557 1 33 1 366 1 297 1
513 0 5 525 1 265 1 198 1 480 1 204 1
514 0 5 236 1 475 1 197 1 237 1 540 1
515 0 5 244 1 195 1 346 1 140 1 291 1
516 0 5 23 1 547 1 204 1 265 1 133 1
517 0 5 318 1 98 1 509 1 40 1 151 1
518 0 5 21 1 351 1 178 1 551 1 62 1
519 0 5 9 1 292 1 503 1 360 1 384 1
520 0 5 353 1 548 1 276 1 405 1 312 1
521 0 5 493 1 264 1 70 1 495 1 158 1
522 0 5 28 1 290 1 177 1 223 1 344 1
523 0 5 120 1 187 1 438 1 454 1 251 1
524 0 5 556 1 132 1 487 1 563 1 30 1
525 0 5 513 1 265 1 198 1 241 1 480 1
526 0 5 553 1 147 1 121 1 16 1 418 1
527 0 5 35 1 175 1 505 1 84 1 248 1
528 0 5 243 1 569 1 436 1 254 1 208 1
529 0 5 23 1 163 1 541 1 24 1 464 1
530 0 5 228 1 74 1 247 1 331 1 154 1
531 0 5 196 1 45 1 507 1 220 1 434 1
532 0 5 382 1 174 1 78 1 346 1 291 1
533 0 5 3 1 8 1 261 1 288 1 85 1
534 0 5 409 1 153 1 35 1 51 1 151 1
535 0 5 37 1 565 1 207 1 289 1 457 1
536 0 5 127 1 243 1 354 1 9 1 126 1
537 0 5 19 1 164 1 13 1 233 1 406 1
538 0 5 183 1 403 1 376 1 248 1 505 1
539 0 5 567 1 143 1 5 1 362 1 179 1
540 0 5 211 1 239 1 202 1 510 1 67 1
541 0 5 399 1 301 1 93 1 304 1 292 1
542 0 5 380 1 39 1 440 1 467 1 194 1
543 0 5 389 1 320 1 229 1 365 1 113 1
544 0 5 179 1 209 1 226 1 38 1 197 1
545 0 5 148 1 21 1 342 1 385 1 351 1
546 0 5 33 1 107 1 234 1 134 1 492 1
547 0 5 23 1 516 1 241 1 198 1 265 1
548 0 5 131 1 353 1 559 1 520 1 276 1
549 0 5 170 1 270 1 273 1 359 1 410 1
550 0 5 471 1 221 1 237 1 5 1 236 1
551 0 5 69 1 148 1 545 1 342 1 518 1
552 0 5 128 1 423 1 20 1 199 1 411 1
553 0 5 121 1 418 1 526 1 147 1 315 1
554 0 5 130 1 296 1 352 1 320 1 543 1
555 0 5 404 1 104 1 168 1 139 1 361 1
556 0 5 132 1 524 1 30 1 476 1 487 1
557 0 5 512 1 297 1 366 1 255 1 57 1
558 0 5 81 1 11 1 44 1 480 1 407 1
559 0 5 131 1 276 1 405 1 351 1 548 1
560 0 5 459 1 363 1 177 1 504 1 290 1
561 0 5 4 1 33 1 396 1 107 1 546 1
562 0 5 4 1 282 1 43 1 222 1 319 1
563 0 5 487 1 30 1 524 1 280 1 556 1
564 0 5 299 1 47 1 274 1 3 1 290 1
565 0 5 37 1 535 1 207 1 457 1 423 1
566 0 5 96 1 253 1 14 1 246 1 444 1
567 0 5 143 1 362 1 539 1 179 1 500 1
568 0 5 512 1 297 1 255 1 366 1 557 1
569 0 5 86 1 12 1 528 1 499 1 509 1
570 0 5 509 1 41 1 26 1 569 1 243 1
571 0 5 235 1 15 1 510 1 139 1 472 1
572 0 5 448 1 121 1 315 1 418 1 116 1
573 0 5 102 1 343 1 242 1 480 1 336 1
574 0 5 575 1 592 1 591 1 590 1 589 1
575 0 5 575 1 592 1 591 1 590 1 589 1
576 0 5 575 1 592 1 591 1 590 1 589 1
577 0 5 575 1 592 1 591 1 590 1 589 1
578 0 5 575 1 592 1 591 1 590 1 589 1
579 0 5 575 1 592 1 591 1 590 1 589 1
580 0 5 575 1 592 1 591 1 590 1 589 1
581 0 5 575 1 592 1 591 1 590 1 589 1
582 0 5 575 1 592 1 591 1 590 1 589 1
583 0 5 575 1 592 1 591 1 590 1 589 1
584 0 5 575 1 592 1 591 1 590 1 589 1
585 0 5 575 1 592 1 591 1 590 1 589 1
586 0 5 575 1 592 1 591 1 590 1 589 1
587 0 5 575 1 592 1 591 1 590 1 589 1
588 0 5 575 1 592 1 591 1 590 1 589 1
589 0 5 575 1 592 1 591 1 590 1 589 1
590 0 5 575 1 592 1 591 1 590 1 589 1
591 0 5 575 1 592 1 591 1 590 1 589 1
592 0 5 575 1 592 1 591 1 590 1 589 1
593 0 5 575 1 592 1 591 1 590 1 589 1
594 0 5 575 1 592 1 591 1 590 1 589 1
595 0 5 575 1 592 1 591 1 590 1 589 1
596 0 5 575 1 592 1 591 1 590 1 589 1
597 0 5 575 1 592 1 591 1 590 1 589 1
598 0 5 575 1 592 1 591 1 590 1 589 1
599 0 5 575 1 592 1 591 1 590 1 589 1
600 0 5 575 1 592 1 591 1 590 1 589 1
601 0 5 575 1 592 1 591 1 590 1 589 1
602 0 5 575 1 592 1 591 1 590 1 589 1
-1
EOF
